c ind 10 101 103 105 107 109 176 177 179 180 0
c ind 182 183 185 186 188 189 191 192 194 195 0
c ind 197 198 200 201 203 204 206 207 209 210 0
c ind 212 213 215 216 218 219 221 222 224 225 0
c ind 227 228 230 231 233 234 236 237 239 240 0
c ind 242 243 245 246 248 249 251 252 254 255 0
c ind 257 258 260 261 263 264 266 267 269 270 0
c ind 3 4 47 49 51 53 55 57 59 6 0
c ind 61 614 615 617 618 620 621 623 624 626 0
c ind 627 629 63 630 632 633 635 636 638 639 0
c ind 641 642 644 645 647 648 65 650 651 653 0
c ind 654 656 657 659 660 662 663 665 666 668 0
c ind 669 67 671 672 674 675 677 678 680 681 0
c ind 683 684 686 687 689 69 690 692 693 695 0
c ind 696 698 699 7 701 702 704 705 707 708 0
c ind 71 73 75 77 79 81 83 85 87 89 0
c ind 91 93 95 97 99 0
p cnf 824 2128
-1 -2 5 0
-1 2 8 0
-100 -101 7 0
-100 -7 101 0
-102 -103 7 0
-102 -7 103 0
-104 -105 7 0
-104 -7 105 0
-106 -107 7 0
-106 -7 107 0
-108 -109 7 0
-108 -7 109 0
-11 -4 6 0
-11 -6 4 0
-110 -111 143 0
-110 111 271 0
-111 108 0
-111 112 0
-112 106 0
-112 113 0
-113 104 0
-113 114 0
-114 102 0
-114 115 0
-115 100 0
-115 116 0
-116 117 0
-116 98 0
-117 118 0
-117 96 0
-118 119 0
-118 94 0
-119 120 0
-119 92 0
-12 -13 14 0
-12 13 5 0
-120 121 0
-120 90 0
-121 122 0
-121 88 0
-122 123 0
-122 86 0
-123 124 0
-123 84 0
-124 125 0
-124 82 0
-125 126 0
-125 80 0
-126 127 0
-126 78 0
-127 128 0
-127 76 0
-128 129 0
-128 74 0
-129 130 0
-129 72 0
-13 -10 4 0
-13 -4 10 0
-130 131 0
-130 70 0
-131 132 0
-131 68 0
-132 133 0
-132 66 0
-133 134 0
-133 64 0
-134 135 0
-134 62 0
-135 136 0
-135 60 0
-136 137 0
-136 58 0
-137 138 0
-137 56 0
-138 139 0
-138 54 0
-139 140 0
-139 52 0
-14 -15 11 0
-14 15 110 0
-140 141 0
-140 50 0
-141 142 0
-141 48 0
-142 -4 47 0
-142 -47 4 0
-143 -144 11 0
-143 144 5 0
-144 145 0
-144 268 0
-145 146 0
-145 265 0
-146 147 0
-146 262 0
-147 148 0
-147 259 0
-148 149 0
-148 256 0
-149 150 0
-149 253 0
-15 108 0
-15 16 0
-150 151 0
-150 250 0
-151 152 0
-151 247 0
-152 153 0
-152 244 0
-153 154 0
-153 241 0
-154 155 0
-154 238 0
-155 156 0
-155 235 0
-156 157 0
-156 232 0
-157 158 0
-157 229 0
-158 159 0
-158 226 0
-159 160 0
-159 223 0
-16 106 0
-16 17 0
-160 161 0
-160 220 0
-161 162 0
-161 217 0
-162 163 0
-162 214 0
-163 164 0
-163 211 0
-164 165 0
-164 208 0
-165 166 0
-165 205 0
-166 167 0
-166 202 0
-167 168 0
-167 199 0
-168 169 0
-168 196 0
-169 170 0
-169 193 0
-17 104 0
-17 18 0
-170 171 0
-170 190 0
-171 172 0
-171 187 0
-172 173 0
-172 184 0
-173 174 0
-173 181 0
-174 175 0
-174 178 0
-175 -176 177 0
-175 -177 176 0
-178 -179 180 0
-178 -180 179 0
-18 102 0
-18 19 0
-181 -182 183 0
-181 -183 182 0
-184 -185 186 0
-184 -186 185 0
-187 -188 189 0
-187 -189 188 0
-19 100 0
-19 20 0
-190 -191 192 0
-190 -192 191 0
-193 -194 195 0
-193 -195 194 0
-196 -197 198 0
-196 -198 197 0
-199 -200 201 0
-199 -201 200 0
-2 -3 4 0
-2 -4 3 0
-20 21 0
-20 98 0
-202 -203 204 0
-202 -204 203 0
-205 -206 207 0
-205 -207 206 0
-208 -209 210 0
-208 -210 209 0
-21 22 0
-21 96 0
-211 -212 213 0
-211 -213 212 0
-214 -215 216 0
-214 -216 215 0
-217 -218 219 0
-217 -219 218 0
-22 23 0
-22 94 0
-220 -221 222 0
-220 -222 221 0
-223 -224 225 0
-223 -225 224 0
-226 -227 228 0
-226 -228 227 0
-229 -230 231 0
-229 -231 230 0
-23 24 0
-23 92 0
-232 -233 234 0
-232 -234 233 0
-235 -236 237 0
-235 -237 236 0
-238 -239 240 0
-238 -240 239 0
-24 25 0
-24 90 0
-241 -242 243 0
-241 -243 242 0
-244 -245 246 0
-244 -246 245 0
-247 -248 249 0
-247 -249 248 0
-25 26 0
-25 88 0
-250 -251 252 0
-250 -252 251 0
-253 -254 255 0
-253 -255 254 0
-256 -257 258 0
-256 -258 257 0
-259 -260 261 0
-259 -261 260 0
-26 27 0
-26 86 0
-262 -263 264 0
-262 -264 263 0
-265 -266 267 0
-265 -267 266 0
-268 -269 270 0
-268 -270 269 0
-27 28 0
-27 84 0
-271 -272 11 0
-271 272 304 0
-272 108 0
-272 273 0
-273 106 0
-273 274 0
-274 104 0
-274 275 0
-275 102 0
-275 276 0
-276 100 0
-276 277 0
-277 278 0
-277 98 0
-278 279 0
-278 96 0
-279 280 0
-279 94 0
-28 29 0
-28 82 0
-280 281 0
-280 92 0
-281 282 0
-281 90 0
-282 283 0
-282 88 0
-283 284 0
-283 86 0
-284 285 0
-284 84 0
-285 286 0
-285 82 0
-286 287 0
-286 80 0
-287 288 0
-287 78 0
-288 289 0
-288 76 0
-289 290 0
-289 74 0
-29 30 0
-29 80 0
-290 291 0
-290 72 0
-291 292 0
-291 70 0
-292 293 0
-292 68 0
-293 294 0
-293 66 0
-294 295 0
-294 64 0
-295 296 0
-295 62 0
-296 297 0
-296 60 0
-297 298 0
-297 58 0
-298 299 0
-298 56 0
-299 300 0
-299 54 0
-30 31 0
-30 78 0
-300 301 0
-300 52 0
-301 302 0
-301 50 0
-302 303 0
-302 46 0
-303 -4 49 0
-303 -49 4 0
-304 -305 5 0
-304 305 336 0
-305 108 0
-305 306 0
-306 106 0
-306 307 0
-307 104 0
-307 308 0
-308 102 0
-308 309 0
-309 100 0
-309 310 0
-31 32 0
-31 76 0
-310 311 0
-310 98 0
-311 312 0
-311 96 0
-312 313 0
-312 94 0
-313 314 0
-313 92 0
-314 315 0
-314 90 0
-315 316 0
-315 88 0
-316 317 0
-316 86 0
-317 318 0
-317 84 0
-318 319 0
-318 82 0
-319 320 0
-319 80 0
-32 33 0
-32 74 0
-320 321 0
-320 78 0
-321 322 0
-321 76 0
-322 323 0
-322 74 0
-323 324 0
-323 72 0
-324 325 0
-324 70 0
-325 326 0
-325 68 0
-326 327 0
-326 66 0
-327 328 0
-327 64 0
-328 329 0
-328 62 0
-329 330 0
-329 60 0
-33 34 0
-33 72 0
-330 331 0
-330 58 0
-331 332 0
-331 56 0
-332 333 0
-332 54 0
-333 334 0
-333 52 0
-334 335 0
-334 50 0
-335 142 0
-335 303 0
-336 -337 143 0
-336 337 368 0
-337 108 0
-337 338 0
-338 106 0
-338 339 0
-339 104 0
-339 340 0
-34 35 0
-34 70 0
-340 102 0
-340 341 0
-341 100 0
-341 342 0
-342 343 0
-342 98 0
-343 344 0
-343 96 0
-344 345 0
-344 94 0
-345 346 0
-345 92 0
-346 347 0
-346 90 0
-347 348 0
-347 88 0
-348 349 0
-348 86 0
-349 350 0
-349 84 0
-35 36 0
-35 68 0
-350 351 0
-350 82 0
-351 352 0
-351 80 0
-352 353 0
-352 78 0
-353 354 0
-353 76 0
-354 355 0
-354 74 0
-355 356 0
-355 72 0
-356 357 0
-356 70 0
-357 358 0
-357 68 0
-358 359 0
-358 66 0
-359 360 0
-359 64 0
-36 37 0
-36 66 0
-360 361 0
-360 62 0
-361 362 0
-361 60 0
-362 363 0
-362 58 0
-363 364 0
-363 56 0
-364 365 0
-364 54 0
-365 366 0
-365 52 0
-366 367 0
-366 45 0
-367 -4 51 0
-367 -51 4 0
-368 -369 11 0
-368 369 399 0
-369 108 0
-369 370 0
-37 38 0
-37 64 0
-370 106 0
-370 371 0
-371 104 0
-371 372 0
-372 102 0
-372 373 0
-373 100 0
-373 374 0
-374 375 0
-374 98 0
-375 376 0
-375 96 0
-376 377 0
-376 94 0
-377 378 0
-377 92 0
-378 379 0
-378 90 0
-379 380 0
-379 88 0
-38 39 0
-38 62 0
-380 381 0
-380 86 0
-381 382 0
-381 84 0
-382 383 0
-382 82 0
-383 384 0
-383 80 0
-384 385 0
-384 78 0
-385 386 0
-385 76 0
-386 387 0
-386 74 0
-387 388 0
-387 72 0
-388 389 0
-388 70 0
-389 390 0
-389 68 0
-39 40 0
-39 60 0
-390 391 0
-390 66 0
-391 392 0
-391 64 0
-392 393 0
-392 62 0
-393 394 0
-393 60 0
-394 395 0
-394 58 0
-395 396 0
-395 56 0
-396 397 0
-396 54 0
-397 398 0
-397 52 0
-398 141 0
-398 367 0
-399 -400 11 0
-399 400 430 0
-40 41 0
-40 58 0
-400 108 0
-400 401 0
-401 106 0
-401 402 0
-402 104 0
-402 403 0
-403 102 0
-403 404 0
-404 100 0
-404 405 0
-405 406 0
-405 98 0
-406 407 0
-406 96 0
-407 408 0
-407 94 0
-408 409 0
-408 92 0
-409 410 0
-409 90 0
-41 42 0
-41 56 0
-410 411 0
-410 88 0
-411 412 0
-411 86 0
-412 413 0
-412 84 0
-413 414 0
-413 82 0
-414 415 0
-414 80 0
-415 416 0
-415 78 0
-416 417 0
-416 76 0
-417 418 0
-417 74 0
-418 419 0
-418 72 0
-419 420 0
-419 70 0
-42 43 0
-42 54 0
-420 421 0
-420 68 0
-421 422 0
-421 66 0
-422 423 0
-422 64 0
-423 424 0
-423 62 0
-424 425 0
-424 60 0
-425 426 0
-425 58 0
-426 427 0
-426 56 0
-427 428 0
-427 54 0
-428 429 0
-428 52 0
-429 302 0
-429 367 0
-43 44 0
-43 52 0
-430 -431 11 0
-430 431 461 0
-431 108 0
-431 432 0
-432 106 0
-432 433 0
-433 104 0
-433 434 0
-434 102 0
-434 435 0
-435 100 0
-435 436 0
-436 437 0
-436 98 0
-437 438 0
-437 96 0
-438 439 0
-438 94 0
-439 440 0
-439 92 0
-44 45 0
-44 50 0
-440 441 0
-440 90 0
-441 442 0
-441 88 0
-442 443 0
-442 86 0
-443 444 0
-443 84 0
-444 445 0
-444 82 0
-445 446 0
-445 80 0
-446 447 0
-446 78 0
-447 448 0
-447 76 0
-448 449 0
-448 74 0
-449 450 0
-449 72 0
-45 46 0
-45 48 0
-450 451 0
-450 70 0
-451 452 0
-451 68 0
-452 453 0
-452 66 0
-453 454 0
-453 64 0
-454 455 0
-454 62 0
-455 456 0
-455 60 0
-456 457 0
-456 58 0
-457 458 0
-457 56 0
-458 459 0
-458 54 0
-459 460 0
-459 52 0
-46 -47 7 0
-46 -7 47 0
-460 335 0
-460 367 0
-461 -462 11 0
-461 462 492 0
-462 108 0
-462 463 0
-463 106 0
-463 464 0
-464 104 0
-464 465 0
-465 102 0
-465 466 0
-466 100 0
-466 467 0
-467 468 0
-467 98 0
-468 469 0
-468 96 0
-469 470 0
-469 94 0
-470 471 0
-470 92 0
-471 472 0
-471 90 0
-472 473 0
-472 88 0
-473 474 0
-473 86 0
-474 475 0
-474 84 0
-475 476 0
-475 82 0
-476 477 0
-476 80 0
-477 478 0
-477 78 0
-478 479 0
-478 76 0
-479 480 0
-479 74 0
-48 -49 7 0
-48 -7 49 0
-480 481 0
-480 72 0
-481 482 0
-481 70 0
-482 483 0
-482 68 0
-483 484 0
-483 66 0
-484 485 0
-484 64 0
-485 486 0
-485 62 0
-486 487 0
-486 60 0
-487 488 0
-487 58 0
-488 489 0
-488 56 0
-489 490 0
-489 54 0
-490 44 0
-490 491 0
-491 -4 53 0
-491 -53 4 0
-492 -493 11 0
-492 493 522 0
-493 108 0
-493 494 0
-494 106 0
-494 495 0
-495 104 0
-495 496 0
-496 102 0
-496 497 0
-497 100 0
-497 498 0
-498 499 0
-498 98 0
-499 500 0
-499 96 0
-5 -6 7 0
-5 -7 6 0
-50 -51 7 0
-50 -7 51 0
-500 501 0
-500 94 0
-501 502 0
-501 92 0
-502 503 0
-502 90 0
-503 504 0
-503 88 0
-504 505 0
-504 86 0
-505 506 0
-505 84 0
-506 507 0
-506 82 0
-507 508 0
-507 80 0
-508 509 0
-508 78 0
-509 510 0
-509 76 0
-510 511 0
-510 74 0
-511 512 0
-511 72 0
-512 513 0
-512 70 0
-513 514 0
-513 68 0
-514 515 0
-514 66 0
-515 516 0
-515 64 0
-516 517 0
-516 62 0
-517 518 0
-517 60 0
-518 519 0
-518 58 0
-519 520 0
-519 56 0
-52 -53 7 0
-52 -7 53 0
-520 521 0
-520 54 0
-521 140 0
-521 491 0
-522 -523 11 0
-522 523 552 0
-523 108 0
-523 524 0
-524 106 0
-524 525 0
-525 104 0
-525 526 0
-526 102 0
-526 527 0
-527 100 0
-527 528 0
-528 529 0
-528 98 0
-529 530 0
-529 96 0
-530 531 0
-530 94 0
-531 532 0
-531 92 0
-532 533 0
-532 90 0
-533 534 0
-533 88 0
-534 535 0
-534 86 0
-535 536 0
-535 84 0
-536 537 0
-536 82 0
-537 538 0
-537 80 0
-538 539 0
-538 78 0
-539 540 0
-539 76 0
-54 -55 7 0
-54 -7 55 0
-540 541 0
-540 74 0
-541 542 0
-541 72 0
-542 543 0
-542 70 0
-543 544 0
-543 68 0
-544 545 0
-544 66 0
-545 546 0
-545 64 0
-546 547 0
-546 62 0
-547 548 0
-547 60 0
-548 549 0
-548 58 0
-549 550 0
-549 56 0
-550 43 0
-550 551 0
-551 -4 55 0
-551 -55 4 0
-552 -553 581 0
-552 553 709 0
-553 108 0
-553 554 0
-554 106 0
-554 555 0
-555 104 0
-555 556 0
-556 102 0
-556 557 0
-557 100 0
-557 558 0
-558 559 0
-558 98 0
-559 560 0
-559 96 0
-56 -57 7 0
-56 -7 57 0
-560 561 0
-560 94 0
-561 562 0
-561 92 0
-562 563 0
-562 90 0
-563 564 0
-563 88 0
-564 565 0
-564 86 0
-565 566 0
-565 84 0
-566 567 0
-566 82 0
-567 568 0
-567 80 0
-568 569 0
-568 78 0
-569 570 0
-569 76 0
-570 571 0
-570 74 0
-571 572 0
-571 72 0
-572 573 0
-572 70 0
-573 574 0
-573 68 0
-574 575 0
-574 66 0
-575 576 0
-575 64 0
-576 577 0
-576 62 0
-577 578 0
-577 60 0
-578 579 0
-578 58 0
-579 56 0
-579 580 0
-58 -59 7 0
-58 -7 59 0
-580 139 0
-580 551 0
-581 -582 11 0
-581 582 5 0
-582 583 0
-582 706 0
-583 584 0
-583 703 0
-584 585 0
-584 700 0
-585 586 0
-585 697 0
-586 587 0
-586 694 0
-587 588 0
-587 691 0
-588 589 0
-588 688 0
-589 590 0
-589 685 0
-590 591 0
-590 682 0
-591 592 0
-591 679 0
-592 593 0
-592 676 0
-593 594 0
-593 673 0
-594 595 0
-594 670 0
-595 596 0
-595 667 0
-596 597 0
-596 664 0
-597 598 0
-597 661 0
-598 599 0
-598 658 0
-599 600 0
-599 655 0
-60 -61 7 0
-60 -7 61 0
-600 601 0
-600 652 0
-601 602 0
-601 649 0
-602 603 0
-602 646 0
-603 604 0
-603 643 0
-604 605 0
-604 640 0
-605 606 0
-605 637 0
-606 607 0
-606 634 0
-607 608 0
-607 631 0
-608 609 0
-608 628 0
-609 610 0
-609 625 0
-610 611 0
-610 622 0
-611 612 0
-611 619 0
-612 613 0
-612 616 0
-613 -614 615 0
-613 -615 614 0
-616 -617 618 0
-616 -618 617 0
-619 -620 621 0
-619 -621 620 0
-62 -63 7 0
-62 -7 63 0
-622 -623 624 0
-622 -624 623 0
-625 -626 627 0
-625 -627 626 0
-628 -629 630 0
-628 -630 629 0
-631 -632 633 0
-631 -633 632 0
-634 -635 636 0
-634 -636 635 0
-637 -638 639 0
-637 -639 638 0
-64 -65 7 0
-64 -7 65 0
-640 -641 642 0
-640 -642 641 0
-643 -644 645 0
-643 -645 644 0
-646 -647 648 0
-646 -648 647 0
-649 -650 651 0
-649 -651 650 0
-652 -653 654 0
-652 -654 653 0
-655 -656 657 0
-655 -657 656 0
-658 -659 660 0
-658 -660 659 0
-66 -67 7 0
-66 -7 67 0
-661 -662 663 0
-661 -663 662 0
-664 -665 666 0
-664 -666 665 0
-667 -668 669 0
-667 -669 668 0
-670 -671 672 0
-670 -672 671 0
-673 -674 675 0
-673 -675 674 0
-676 -677 678 0
-676 -678 677 0
-679 -680 681 0
-679 -681 680 0
-68 -69 7 0
-68 -7 69 0
-682 -683 684 0
-682 -684 683 0
-685 -686 687 0
-685 -687 686 0
-688 -689 690 0
-688 -690 689 0
-691 -692 693 0
-691 -693 692 0
-694 -695 696 0
-694 -696 695 0
-697 -698 699 0
-697 -699 698 0
-7 0
-70 -7 71 0
-70 -71 7 0
-700 -701 702 0
-700 -702 701 0
-703 -704 705 0
-703 -705 704 0
-706 -707 708 0
-706 -708 707 0
-709 -710 5 0
-709 710 738 0
-710 108 0
-710 711 0
-711 106 0
-711 712 0
-712 104 0
-712 713 0
-713 102 0
-713 714 0
-714 100 0
-714 715 0
-715 716 0
-715 98 0
-716 717 0
-716 96 0
-717 718 0
-717 94 0
-718 719 0
-718 92 0
-719 720 0
-719 90 0
-72 -7 73 0
-72 -73 7 0
-720 721 0
-720 88 0
-721 722 0
-721 86 0
-722 723 0
-722 84 0
-723 724 0
-723 82 0
-724 725 0
-724 80 0
-725 726 0
-725 78 0
-726 727 0
-726 76 0
-727 728 0
-727 74 0
-728 72 0
-728 729 0
-729 70 0
-729 730 0
-730 68 0
-730 731 0
-731 66 0
-731 732 0
-732 64 0
-732 733 0
-733 62 0
-733 734 0
-734 60 0
-734 735 0
-735 58 0
-735 736 0
-736 56 0
-736 737 0
-737 300 0
-737 551 0
-738 -739 5 0
-738 739 767 0
-739 108 0
-739 740 0
-74 -7 75 0
-74 -75 7 0
-740 106 0
-740 741 0
-741 104 0
-741 742 0
-742 102 0
-742 743 0
-743 100 0
-743 744 0
-744 745 0
-744 98 0
-745 746 0
-745 96 0
-746 747 0
-746 94 0
-747 748 0
-747 92 0
-748 749 0
-748 90 0
-749 750 0
-749 88 0
-750 751 0
-750 86 0
-751 752 0
-751 84 0
-752 753 0
-752 82 0
-753 754 0
-753 80 0
-754 755 0
-754 78 0
-755 756 0
-755 76 0
-756 74 0
-756 757 0
-757 72 0
-757 758 0
-758 70 0
-758 759 0
-759 68 0
-759 760 0
-76 -7 77 0
-76 -77 7 0
-760 66 0
-760 761 0
-761 64 0
-761 762 0
-762 62 0
-762 763 0
-763 60 0
-763 764 0
-764 58 0
-764 765 0
-765 56 0
-765 766 0
-766 333 0
-766 551 0
-767 -768 11 0
-767 768 796 0
-768 108 0
-768 769 0
-769 106 0
-769 770 0
-770 104 0
-770 771 0
-771 102 0
-771 772 0
-772 100 0
-772 773 0
-773 774 0
-773 98 0
-774 775 0
-774 96 0
-775 776 0
-775 94 0
-776 777 0
-776 92 0
-777 778 0
-777 90 0
-778 779 0
-778 88 0
-779 780 0
-779 86 0
-78 -7 79 0
-78 -79 7 0
-780 781 0
-780 84 0
-781 782 0
-781 82 0
-782 783 0
-782 80 0
-783 78 0
-783 784 0
-784 76 0
-784 785 0
-785 74 0
-785 786 0
-786 72 0
-786 787 0
-787 70 0
-787 788 0
-788 68 0
-788 789 0
-789 66 0
-789 790 0
-790 64 0
-790 791 0
-791 62 0
-791 792 0
-792 60 0
-792 793 0
-793 58 0
-793 794 0
-794 56 0
-794 795 0
-795 365 0
-795 551 0
-796 -797 11 0
-796 797 5 0
-797 108 0
-797 798 0
-798 106 0
-798 799 0
-799 104 0
-799 800 0
-8 -9 11 0
-8 9 12 0
-80 -7 81 0
-80 -81 7 0
-800 102 0
-800 801 0
-801 100 0
-801 802 0
-802 803 0
-802 98 0
-803 804 0
-803 96 0
-804 805 0
-804 94 0
-805 806 0
-805 92 0
-806 807 0
-806 90 0
-807 808 0
-807 88 0
-808 809 0
-808 86 0
-809 810 0
-809 84 0
-810 811 0
-810 82 0
-811 80 0
-811 812 0
-812 78 0
-812 813 0
-813 76 0
-813 814 0
-814 74 0
-814 815 0
-815 72 0
-815 816 0
-816 70 0
-816 817 0
-817 68 0
-817 818 0
-818 66 0
-818 819 0
-819 64 0
-819 820 0
-82 -7 83 0
-82 -83 7 0
-820 62 0
-820 821 0
-821 60 0
-821 822 0
-822 58 0
-822 823 0
-823 56 0
-823 824 0
-824 397 0
-824 551 0
-84 -7 85 0
-84 -85 7 0
-86 -7 87 0
-86 -87 7 0
-88 -7 89 0
-88 -89 7 0
-9 -10 7 0
-9 -7 10 0
-90 -7 91 0
-90 -91 7 0
-92 -7 93 0
-92 -93 7 0
-94 -7 95 0
-94 -95 7 0
-96 -7 97 0
-96 -97 7 0
-98 -7 99 0
-98 -99 7 0
1 -2 -5 0
1 -5 -8 0
1 0
1 2 -8 0
100 -101 -7 0
100 101 7 0
102 -103 -7 0
102 103 7 0
104 -105 -7 0
104 105 7 0
106 -107 -7 0
106 107 7 0
108 -109 -7 0
108 109 7 0
11 -6 -4 0
11 6 4 0
110 -111 -143 0
110 -143 -271 0
110 111 -271 0
111 -112 -108 0
112 -113 -106 0
113 -114 -104 0
114 -115 -102 0
115 -116 -100 0
116 -117 -98 0
117 -118 -96 0
118 -119 -94 0
119 -120 -92 0
12 -13 -14 0
12 -14 -5 0
12 13 -5 0
120 -121 -90 0
121 -122 -88 0
122 -123 -86 0
123 -124 -84 0
124 -125 -82 0
125 -126 -80 0
126 -127 -78 0
127 -128 -76 0
128 -129 -74 0
129 -130 -72 0
13 -10 -4 0
13 10 4 0
130 -131 -70 0
131 -132 -68 0
132 -133 -66 0
133 -134 -64 0
134 -135 -62 0
135 -136 -60 0
136 -137 -58 0
137 -138 -56 0
138 -139 -54 0
139 -140 -52 0
14 -11 -110 0
14 -15 -11 0
14 15 -110 0
140 -141 -50 0
141 -142 -48 0
142 -47 -4 0
142 47 4 0
143 -11 -5 0
143 -144 -11 0
143 144 -5 0
144 -145 -268 0
145 -146 -265 0
146 -147 -262 0
147 -148 -259 0
148 -149 -256 0
149 -150 -253 0
15 -16 -108 0
150 -151 -250 0
151 -152 -247 0
152 -153 -244 0
153 -154 -241 0
154 -155 -238 0
155 -156 -235 0
156 -157 -232 0
157 -158 -229 0
158 -159 -226 0
159 -160 -223 0
16 -17 -106 0
160 -161 -220 0
161 -162 -217 0
162 -163 -214 0
163 -164 -211 0
164 -165 -208 0
165 -166 -205 0
166 -167 -202 0
167 -168 -199 0
168 -169 -196 0
169 -170 -193 0
17 -18 -104 0
170 -171 -190 0
171 -172 -187 0
172 -173 -184 0
173 -174 -181 0
174 -175 -178 0
175 -176 -177 0
175 176 177 0
178 -179 -180 0
178 179 180 0
18 -19 -102 0
181 -182 -183 0
181 182 183 0
184 -185 -186 0
184 185 186 0
187 -188 -189 0
187 188 189 0
19 -20 -100 0
190 -191 -192 0
190 191 192 0
193 -194 -195 0
193 194 195 0
196 -197 -198 0
196 197 198 0
199 -200 -201 0
199 200 201 0
2 -3 -4 0
2 3 4 0
20 -21 -98 0
202 -203 -204 0
202 203 204 0
205 -206 -207 0
205 206 207 0
208 -209 -210 0
208 209 210 0
21 -22 -96 0
211 -212 -213 0
211 212 213 0
214 -215 -216 0
214 215 216 0
217 -218 -219 0
217 218 219 0
22 -23 -94 0
220 -221 -222 0
220 221 222 0
223 -224 -225 0
223 224 225 0
226 -227 -228 0
226 227 228 0
229 -230 -231 0
229 230 231 0
23 -24 -92 0
232 -233 -234 0
232 233 234 0
235 -236 -237 0
235 236 237 0
238 -239 -240 0
238 239 240 0
24 -25 -90 0
241 -242 -243 0
241 242 243 0
244 -245 -246 0
244 245 246 0
247 -248 -249 0
247 248 249 0
25 -26 -88 0
250 -251 -252 0
250 251 252 0
253 -254 -255 0
253 254 255 0
256 -257 -258 0
256 257 258 0
259 -260 -261 0
259 260 261 0
26 -27 -86 0
262 -263 -264 0
262 263 264 0
265 -266 -267 0
265 266 267 0
268 -269 -270 0
268 269 270 0
27 -28 -84 0
271 -11 -304 0
271 -272 -11 0
271 272 -304 0
272 -273 -108 0
273 -274 -106 0
274 -275 -104 0
275 -276 -102 0
276 -277 -100 0
277 -278 -98 0
278 -279 -96 0
279 -280 -94 0
28 -29 -82 0
280 -281 -92 0
281 -282 -90 0
282 -283 -88 0
283 -284 -86 0
284 -285 -84 0
285 -286 -82 0
286 -287 -80 0
287 -288 -78 0
288 -289 -76 0
289 -290 -74 0
29 -30 -80 0
290 -291 -72 0
291 -292 -70 0
292 -293 -68 0
293 -294 -66 0
294 -295 -64 0
295 -296 -62 0
296 -297 -60 0
297 -298 -58 0
298 -299 -56 0
299 -300 -54 0
30 -31 -78 0
300 -301 -52 0
301 -302 -50 0
302 -46 -303 0
303 -49 -4 0
303 49 4 0
304 -305 -5 0
304 -5 -336 0
304 305 -336 0
305 -306 -108 0
306 -307 -106 0
307 -308 -104 0
308 -309 -102 0
309 -310 -100 0
31 -32 -76 0
310 -311 -98 0
311 -312 -96 0
312 -313 -94 0
313 -314 -92 0
314 -315 -90 0
315 -316 -88 0
316 -317 -86 0
317 -318 -84 0
318 -319 -82 0
319 -320 -80 0
32 -33 -74 0
320 -321 -78 0
321 -322 -76 0
322 -323 -74 0
323 -324 -72 0
324 -325 -70 0
325 -326 -68 0
326 -327 -66 0
327 -328 -64 0
328 -329 -62 0
329 -330 -60 0
33 -34 -72 0
330 -331 -58 0
331 -332 -56 0
332 -333 -54 0
333 -334 -52 0
334 -335 -50 0
335 -142 -303 0
336 -143 -368 0
336 -337 -143 0
336 337 -368 0
337 -338 -108 0
338 -339 -106 0
339 -340 -104 0
34 -35 -70 0
340 -341 -102 0
341 -342 -100 0
342 -343 -98 0
343 -344 -96 0
344 -345 -94 0
345 -346 -92 0
346 -347 -90 0
347 -348 -88 0
348 -349 -86 0
349 -350 -84 0
35 -36 -68 0
350 -351 -82 0
351 -352 -80 0
352 -353 -78 0
353 -354 -76 0
354 -355 -74 0
355 -356 -72 0
356 -357 -70 0
357 -358 -68 0
358 -359 -66 0
359 -360 -64 0
36 -37 -66 0
360 -361 -62 0
361 -362 -60 0
362 -363 -58 0
363 -364 -56 0
364 -365 -54 0
365 -366 -52 0
366 -45 -367 0
367 -51 -4 0
367 51 4 0
368 -11 -399 0
368 -369 -11 0
368 369 -399 0
369 -370 -108 0
37 -38 -64 0
370 -371 -106 0
371 -372 -104 0
372 -373 -102 0
373 -374 -100 0
374 -375 -98 0
375 -376 -96 0
376 -377 -94 0
377 -378 -92 0
378 -379 -90 0
379 -380 -88 0
38 -39 -62 0
380 -381 -86 0
381 -382 -84 0
382 -383 -82 0
383 -384 -80 0
384 -385 -78 0
385 -386 -76 0
386 -387 -74 0
387 -388 -72 0
388 -389 -70 0
389 -390 -68 0
39 -40 -60 0
390 -391 -66 0
391 -392 -64 0
392 -393 -62 0
393 -394 -60 0
394 -395 -58 0
395 -396 -56 0
396 -397 -54 0
397 -398 -52 0
398 -141 -367 0
399 -11 -430 0
399 -400 -11 0
399 400 -430 0
4 0
40 -41 -58 0
400 -401 -108 0
401 -402 -106 0
402 -403 -104 0
403 -404 -102 0
404 -405 -100 0
405 -406 -98 0
406 -407 -96 0
407 -408 -94 0
408 -409 -92 0
409 -410 -90 0
41 -42 -56 0
410 -411 -88 0
411 -412 -86 0
412 -413 -84 0
413 -414 -82 0
414 -415 -80 0
415 -416 -78 0
416 -417 -76 0
417 -418 -74 0
418 -419 -72 0
419 -420 -70 0
42 -43 -54 0
420 -421 -68 0
421 -422 -66 0
422 -423 -64 0
423 -424 -62 0
424 -425 -60 0
425 -426 -58 0
426 -427 -56 0
427 -428 -54 0
428 -429 -52 0
429 -302 -367 0
43 -44 -52 0
430 -11 -461 0
430 -431 -11 0
430 431 -461 0
431 -432 -108 0
432 -433 -106 0
433 -434 -104 0
434 -435 -102 0
435 -436 -100 0
436 -437 -98 0
437 -438 -96 0
438 -439 -94 0
439 -440 -92 0
44 -45 -50 0
440 -441 -90 0
441 -442 -88 0
442 -443 -86 0
443 -444 -84 0
444 -445 -82 0
445 -446 -80 0
446 -447 -78 0
447 -448 -76 0
448 -449 -74 0
449 -450 -72 0
45 -46 -48 0
450 -451 -70 0
451 -452 -68 0
452 -453 -66 0
453 -454 -64 0
454 -455 -62 0
455 -456 -60 0
456 -457 -58 0
457 -458 -56 0
458 -459 -54 0
459 -460 -52 0
46 -47 -7 0
46 47 7 0
460 -335 -367 0
461 -11 -492 0
461 -462 -11 0
461 462 -492 0
462 -463 -108 0
463 -464 -106 0
464 -465 -104 0
465 -466 -102 0
466 -467 -100 0
467 -468 -98 0
468 -469 -96 0
469 -470 -94 0
470 -471 -92 0
471 -472 -90 0
472 -473 -88 0
473 -474 -86 0
474 -475 -84 0
475 -476 -82 0
476 -477 -80 0
477 -478 -78 0
478 -479 -76 0
479 -480 -74 0
48 -49 -7 0
48 49 7 0
480 -481 -72 0
481 -482 -70 0
482 -483 -68 0
483 -484 -66 0
484 -485 -64 0
485 -486 -62 0
486 -487 -60 0
487 -488 -58 0
488 -489 -56 0
489 -490 -54 0
490 -44 -491 0
491 -53 -4 0
491 53 4 0
492 -11 -522 0
492 -493 -11 0
492 493 -522 0
493 -494 -108 0
494 -495 -106 0
495 -496 -104 0
496 -497 -102 0
497 -498 -100 0
498 -499 -98 0
499 -500 -96 0
5 -6 -7 0
5 6 7 0
50 -51 -7 0
50 51 7 0
500 -501 -94 0
501 -502 -92 0
502 -503 -90 0
503 -504 -88 0
504 -505 -86 0
505 -506 -84 0
506 -507 -82 0
507 -508 -80 0
508 -509 -78 0
509 -510 -76 0
510 -511 -74 0
511 -512 -72 0
512 -513 -70 0
513 -514 -68 0
514 -515 -66 0
515 -516 -64 0
516 -517 -62 0
517 -518 -60 0
518 -519 -58 0
519 -520 -56 0
52 -53 -7 0
52 53 7 0
520 -521 -54 0
521 -140 -491 0
522 -11 -552 0
522 -523 -11 0
522 523 -552 0
523 -524 -108 0
524 -525 -106 0
525 -526 -104 0
526 -527 -102 0
527 -528 -100 0
528 -529 -98 0
529 -530 -96 0
530 -531 -94 0
531 -532 -92 0
532 -533 -90 0
533 -534 -88 0
534 -535 -86 0
535 -536 -84 0
536 -537 -82 0
537 -538 -80 0
538 -539 -78 0
539 -540 -76 0
54 -55 -7 0
54 55 7 0
540 -541 -74 0
541 -542 -72 0
542 -543 -70 0
543 -544 -68 0
544 -545 -66 0
545 -546 -64 0
546 -547 -62 0
547 -548 -60 0
548 -549 -58 0
549 -550 -56 0
550 -43 -551 0
551 -55 -4 0
551 55 4 0
552 -553 -581 0
552 -581 -709 0
552 553 -709 0
553 -554 -108 0
554 -555 -106 0
555 -556 -104 0
556 -557 -102 0
557 -558 -100 0
558 -559 -98 0
559 -560 -96 0
56 -57 -7 0
56 57 7 0
560 -561 -94 0
561 -562 -92 0
562 -563 -90 0
563 -564 -88 0
564 -565 -86 0
565 -566 -84 0
566 -567 -82 0
567 -568 -80 0
568 -569 -78 0
569 -570 -76 0
570 -571 -74 0
571 -572 -72 0
572 -573 -70 0
573 -574 -68 0
574 -575 -66 0
575 -576 -64 0
576 -577 -62 0
577 -578 -60 0
578 -579 -58 0
579 -580 -56 0
58 -59 -7 0
58 59 7 0
580 -139 -551 0
581 -11 -5 0
581 -582 -11 0
581 582 -5 0
582 -583 -706 0
583 -584 -703 0
584 -585 -700 0
585 -586 -697 0
586 -587 -694 0
587 -588 -691 0
588 -589 -688 0
589 -590 -685 0
590 -591 -682 0
591 -592 -679 0
592 -593 -676 0
593 -594 -673 0
594 -595 -670 0
595 -596 -667 0
596 -597 -664 0
597 -598 -661 0
598 -599 -658 0
599 -600 -655 0
60 -61 -7 0
60 61 7 0
600 -601 -652 0
601 -602 -649 0
602 -603 -646 0
603 -604 -643 0
604 -605 -640 0
605 -606 -637 0
606 -607 -634 0
607 -608 -631 0
608 -609 -628 0
609 -610 -625 0
610 -611 -622 0
611 -612 -619 0
612 -613 -616 0
613 -614 -615 0
613 614 615 0
616 -617 -618 0
616 617 618 0
619 -620 -621 0
619 620 621 0
62 -63 -7 0
62 63 7 0
622 -623 -624 0
622 623 624 0
625 -626 -627 0
625 626 627 0
628 -629 -630 0
628 629 630 0
631 -632 -633 0
631 632 633 0
634 -635 -636 0
634 635 636 0
637 -638 -639 0
637 638 639 0
64 -65 -7 0
64 65 7 0
640 -641 -642 0
640 641 642 0
643 -644 -645 0
643 644 645 0
646 -647 -648 0
646 647 648 0
649 -650 -651 0
649 650 651 0
652 -653 -654 0
652 653 654 0
655 -656 -657 0
655 656 657 0
658 -659 -660 0
658 659 660 0
66 -67 -7 0
66 67 7 0
661 -662 -663 0
661 662 663 0
664 -665 -666 0
664 665 666 0
667 -668 -669 0
667 668 669 0
670 -671 -672 0
670 671 672 0
673 -674 -675 0
673 674 675 0
676 -677 -678 0
676 677 678 0
679 -680 -681 0
679 680 681 0
68 -69 -7 0
68 69 7 0
682 -683 -684 0
682 683 684 0
685 -686 -687 0
685 686 687 0
688 -689 -690 0
688 689 690 0
691 -692 -693 0
691 692 693 0
694 -695 -696 0
694 695 696 0
697 -698 -699 0
697 698 699 0
70 -71 -7 0
70 71 7 0
700 -701 -702 0
700 701 702 0
703 -704 -705 0
703 704 705 0
706 -707 -708 0
706 707 708 0
709 -5 -738 0
709 -710 -5 0
709 710 -738 0
710 -711 -108 0
711 -712 -106 0
712 -713 -104 0
713 -714 -102 0
714 -715 -100 0
715 -716 -98 0
716 -717 -96 0
717 -718 -94 0
718 -719 -92 0
719 -720 -90 0
72 -73 -7 0
72 73 7 0
720 -721 -88 0
721 -722 -86 0
722 -723 -84 0
723 -724 -82 0
724 -725 -80 0
725 -726 -78 0
726 -727 -76 0
727 -728 -74 0
728 -729 -72 0
729 -730 -70 0
730 -731 -68 0
731 -732 -66 0
732 -733 -64 0
733 -734 -62 0
734 -735 -60 0
735 -736 -58 0
736 -737 -56 0
737 -300 -551 0
738 -5 -767 0
738 -739 -5 0
738 739 -767 0
739 -740 -108 0
74 -75 -7 0
74 75 7 0
740 -741 -106 0
741 -742 -104 0
742 -743 -102 0
743 -744 -100 0
744 -745 -98 0
745 -746 -96 0
746 -747 -94 0
747 -748 -92 0
748 -749 -90 0
749 -750 -88 0
750 -751 -86 0
751 -752 -84 0
752 -753 -82 0
753 -754 -80 0
754 -755 -78 0
755 -756 -76 0
756 -757 -74 0
757 -758 -72 0
758 -759 -70 0
759 -760 -68 0
76 -77 -7 0
76 77 7 0
760 -761 -66 0
761 -762 -64 0
762 -763 -62 0
763 -764 -60 0
764 -765 -58 0
765 -766 -56 0
766 -333 -551 0
767 -11 -796 0
767 -768 -11 0
767 768 -796 0
768 -769 -108 0
769 -770 -106 0
770 -771 -104 0
771 -772 -102 0
772 -773 -100 0
773 -774 -98 0
774 -775 -96 0
775 -776 -94 0
776 -777 -92 0
777 -778 -90 0
778 -779 -88 0
779 -780 -86 0
78 -79 -7 0
78 79 7 0
780 -781 -84 0
781 -782 -82 0
782 -783 -80 0
783 -784 -78 0
784 -785 -76 0
785 -786 -74 0
786 -787 -72 0
787 -788 -70 0
788 -789 -68 0
789 -790 -66 0
790 -791 -64 0
791 -792 -62 0
792 -793 -60 0
793 -794 -58 0
794 -795 -56 0
795 -365 -551 0
796 -11 -5 0
796 -797 -11 0
796 797 -5 0
797 -798 -108 0
798 -799 -106 0
799 -800 -104 0
8 -11 -12 0
8 -9 -11 0
8 9 -12 0
80 -81 -7 0
80 81 7 0
800 -801 -102 0
801 -802 -100 0
802 -803 -98 0
803 -804 -96 0
804 -805 -94 0
805 -806 -92 0
806 -807 -90 0
807 -808 -88 0
808 -809 -86 0
809 -810 -84 0
810 -811 -82 0
811 -812 -80 0
812 -813 -78 0
813 -814 -76 0
814 -815 -74 0
815 -816 -72 0
816 -817 -70 0
817 -818 -68 0
818 -819 -66 0
819 -820 -64 0
82 -83 -7 0
82 83 7 0
820 -821 -62 0
821 -822 -60 0
822 -823 -58 0
823 -824 -56 0
824 -397 -551 0
84 -85 -7 0
84 85 7 0
86 -87 -7 0
86 87 7 0
88 -89 -7 0
88 89 7 0
9 -10 -7 0
9 10 7 0
90 -91 -7 0
90 91 7 0
92 -93 -7 0
92 93 7 0
94 -95 -7 0
94 95 7 0
96 -97 -7 0
96 97 7 0
98 -99 -7 0
98 99 7 0
